33D32945 STP File, STP Format Version 1.0

SECTION Comments
Name "edge_n12_d4_s12"
Problem "Euclidean Steiner Tree Problem"
Remark "Generated with STPGenerator. 4 dimensions."
END

SECTION Graph
Nodes 12
END

SECTION Coordinates
DDDD 0 0.7856002826 0.7856002826 0.7856002826 0.7856002826
DDDD 1 0.4401777473 0.4401777473 0.4401777473 0.4401777473
DDDD 2 0.1151188249 0.1151188249 0.1151188249 0.1151188249
DDDD 3 0.8235438768 0.8235438768 0.8235438768 0.8235438768
DDDD 4 0.6883942167 0.6883942167 0.6883942167 0.6883942167
DDDD 5 0.1299254853 0.1299254853 0.1299254853 0.1299254853
DDDD 6 0.3111650372 0.3111650372 0.3111650372 0.3111650372
DDDD 7 0.5165184259 0.5165184259 0.5165184259 0.5165184259
DDDD 8 0.6420080073 0.6420080073 0.6420080073 0.6420080073
DDDD 9 0.4910349215 0.4910349215 0.4910349215 0.4910349215
DDDD 10 0.0853253426 0.0853253426 0.0853253426 0.0853253426
DDDD 11 0.4141814399 0.4141814399 0.4141814399 0.4141814399
END
